(set-logic QF_ABV)

(declare-const __ESBMC_ptr_obj_start_0 (_ BitVec 64))

(declare-const __ESBMC_ptr_obj_end_0 (_ BitVec 64))

(declare-const __ESBMC_ptr_obj_start_1 (_ BitVec 64))

(declare-const __ESBMC_ptr_obj_end_1 (_ BitVec 64))

(declare-const |smt_conv::__ESBMC_ptr_addr_range_0..start0| (_ BitVec 64))

(declare-const |smt_conv::__ESBMC_ptr_addr_range_0..end0| (_ BitVec 64))

(declare-const |smt_conv::__ESBMC_ptr_addr_range_1..start0| (_ BitVec 64))

(declare-const |smt_conv::__ESBMC_ptr_addr_range_1..end0| (_ BitVec 64))

(declare-const |smt_conv::smt_conv::collate_array_vals::0..start0| (_ BitVec 64))

(declare-const |smt_conv::smt_conv::collate_array_vals::0..end0| (_ BitVec 64))

(declare-const |smt_conv::smt_conv::collate_array_vals::3..start0| (_ BitVec 64))

(declare-const |smt_conv::smt_conv::collate_array_vals::3..end0| (_ BitVec 64))

(declare-const |smt_conv::smt_conv::collate_array_vals::4..start0| (_ BitVec 64))

(declare-const |smt_conv::smt_conv::collate_array_vals::4..end0| (_ BitVec 64))

(declare-const |smt_conv::smt_conv::collate_array_vals::7..start0| (_ BitVec 64))

(declare-const |smt_conv::smt_conv::collate_array_vals::7..end0| (_ BitVec 64))

(declare-const |goto_symex::guard?0!0&0#1| (_ BitVec 1))

(declare-const __ESBMC_ptr_obj_start_2 (_ BitVec 64))

(declare-const __ESBMC_ptr_obj_end_2 (_ BitVec 64))

(declare-const |smt_conv::__ESBMC_ptr_addr_range_2..start0| (_ BitVec 64))

(declare-const |smt_conv::__ESBMC_ptr_addr_range_2..end0| (_ BitVec 64))

(declare-const |smt_conv::smt_conv::collate_array_vals::9..start0| (_ BitVec 64))

(declare-const |smt_conv::smt_conv::collate_array_vals::9..end0| (_ BitVec 64))

(declare-const |smt_conv::smt_conv::collate_array_vals::10..start0| (_ BitVec 64))

(declare-const |smt_conv::smt_conv::collate_array_vals::10..end0| (_ BitVec 64))

(declare-const |smt_conv::smt_conv::collate_array_vals::11..start0| (_ BitVec 64))

(declare-const |smt_conv::smt_conv::collate_array_vals::11..end0| (_ BitVec 64))

(declare-const |smt_conv::smt_conv::collate_array_vals::15..start0| (_ BitVec 64))

(declare-const |smt_conv::smt_conv::collate_array_vals::15..end0| (_ BitVec 64))

(declare-const |smt_conv::smt_conv::collate_array_vals::16..start0| (_ BitVec 64))

(declare-const |smt_conv::smt_conv::collate_array_vals::16..end0| (_ BitVec 64))

(declare-const |smt_conv::symex_dynamic::dynamic_7_array..pointer_object0| (_ BitVec 64))

(declare-const |smt_conv::symex_dynamic::dynamic_7_array..pointer_offset0| (_ BitVec 64))

(declare-const |execution_statet::guard_exec?0!0| (_ BitVec 1))

(declare-const |c:linux-4.2-rc1.tar.xz-43_2a-drivers--media--usb--gspca--gspca_topro.ko-entry_point.cil.out.i@131743@F@assume_abort_if_not@cond?1!0&0#1| (_ BitVec 32))

(declare-const |smt_conv::smt_conv::collate_array_vals::18..start0| (_ BitVec 64))

(declare-const |smt_conv::smt_conv::collate_array_vals::18..end0| (_ BitVec 64))

(declare-const |smt_conv::smt_conv::collate_array_vals::19..start0| (_ BitVec 64))

(declare-const |smt_conv::smt_conv::collate_array_vals::19..end0| (_ BitVec 64))

(declare-const |smt_conv::smt_conv::collate_array_vals::20..start0| (_ BitVec 64))

(declare-const |smt_conv::smt_conv::collate_array_vals::20..end0| (_ BitVec 64))

(declare-const |smt_conv::smt_conv::collate_array_vals::21..start0| (_ BitVec 64))

(declare-const |smt_conv::smt_conv::collate_array_vals::21..end0| (_ BitVec 64))

(declare-const |smt_conv::smt_conv::collate_array_vals::22..start0| (_ BitVec 64))

(declare-const |smt_conv::smt_conv::collate_array_vals::22..end0| (_ BitVec 64))

(declare-const |smt_conv::smt_conv::collate_array_vals::23..start0| (_ BitVec 64))

(declare-const |smt_conv::smt_conv::collate_array_vals::23..end0| (_ BitVec 64))

(declare-const |smt_conv::smt_conv::collate_array_vals::24..start0| (_ BitVec 64))

(declare-const |smt_conv::smt_conv::collate_array_vals::24..end0| (_ BitVec 64))

(declare-const |smt_conv::smt_conv::collate_array_vals::25..start0| (_ BitVec 64))

(declare-const |smt_conv::smt_conv::collate_array_vals::25..end0| (_ BitVec 64))

(declare-const |goto_symex::guard?0!0&0#2| (_ BitVec 1))

(declare-const |goto_symex::guard?0!0&0#3| (_ BitVec 1))

(declare-const __ESBMC_ptr_obj_start_3 (_ BitVec 64))

(declare-const __ESBMC_ptr_obj_end_3 (_ BitVec 64))

(declare-const |smt_conv::__ESBMC_ptr_addr_range_3..start0| (_ BitVec 64))

(declare-const |smt_conv::__ESBMC_ptr_addr_range_3..end0| (_ BitVec 64))

(declare-const |smt_conv::smt_conv::collate_array_vals::26..start0| (_ BitVec 64))

(declare-const |smt_conv::smt_conv::collate_array_vals::26..end0| (_ BitVec 64))

(declare-const |smt_conv::smt_conv::collate_array_vals::27..start0| (_ BitVec 64))

(declare-const |smt_conv::smt_conv::collate_array_vals::27..end0| (_ BitVec 64))

(declare-const |smt_conv::smt_conv::collate_array_vals::28..start0| (_ BitVec 64))

(declare-const |smt_conv::smt_conv::collate_array_vals::28..end0| (_ BitVec 64))

(declare-const |smt_conv::smt_conv::collate_array_vals::29..start0| (_ BitVec 64))

(declare-const |smt_conv::smt_conv::collate_array_vals::29..end0| (_ BitVec 64))

(declare-const |smt_conv::smt_conv::collate_array_vals::36..start0| (_ BitVec 64))

(declare-const |smt_conv::smt_conv::collate_array_vals::36..end0| (_ BitVec 64))

(declare-const |smt_conv::smt_conv::collate_array_vals::37..start0| (_ BitVec 64))

(declare-const |smt_conv::smt_conv::collate_array_vals::37..end0| (_ BitVec 64))

(declare-const |smt_conv::smt_conv::collate_array_vals::38..start0| (_ BitVec 64))

(declare-const |smt_conv::smt_conv::collate_array_vals::38..end0| (_ BitVec 64))

(declare-const |smt_conv::smt_conv::collate_array_vals::39..start0| (_ BitVec 64))

(declare-const |smt_conv::smt_conv::collate_array_vals::39..end0| (_ BitVec 64))

(declare-const |smt_conv::smt_conv::collate_array_vals::40..start0| (_ BitVec 64))

(declare-const |smt_conv::smt_conv::collate_array_vals::40..end0| (_ BitVec 64))

(declare-const |smt_conv::symex_dynamic::dynamic_8_array..pointer_object0| (_ BitVec 64))

(declare-const |smt_conv::symex_dynamic::dynamic_8_array..pointer_offset0| (_ BitVec 64))

(declare-const |c:linux-4.2-rc1.tar.xz-43_2a-drivers--media--usb--gspca--gspca_topro.ko-entry_point.cil.out.i@131743@F@assume_abort_if_not@cond?2!0&0#1| (_ BitVec 32))

(declare-const |smt_conv::smt_conv::collate_array_vals::42..start0| (_ BitVec 64))

(declare-const |smt_conv::smt_conv::collate_array_vals::42..end0| (_ BitVec 64))

(declare-const |smt_conv::smt_conv::collate_array_vals::43..start0| (_ BitVec 64))

(declare-const |smt_conv::smt_conv::collate_array_vals::43..end0| (_ BitVec 64))

(declare-const |smt_conv::smt_conv::collate_array_vals::44..start0| (_ BitVec 64))

(declare-const |smt_conv::smt_conv::collate_array_vals::44..end0| (_ BitVec 64))

(declare-const |smt_conv::smt_conv::collate_array_vals::45..start0| (_ BitVec 64))

(declare-const |smt_conv::smt_conv::collate_array_vals::45..end0| (_ BitVec 64))

(declare-const |smt_conv::smt_conv::collate_array_vals::46..start0| (_ BitVec 64))

(declare-const |smt_conv::smt_conv::collate_array_vals::46..end0| (_ BitVec 64))

(declare-const |goto_symex::guard?0!0&0#4| (_ BitVec 1))

(declare-const |__ESBMC_is_dynamic&0#1| (Array (_ BitVec 64) (_ BitVec 1)))

(define-fun $e1 () Bool 

 (= #b0000000000000000000000000000000000000000000000000000000000000000 |smt_conv::symex_dynamic::dynamic_7_array..pointer_object0|))

(define-fun $e2 () Bool 

 (= #b0000000000000000000000000000000000000000000000000000000000000001 |smt_conv::symex_dynamic::dynamic_7_array..pointer_object0|))

(define-fun $e3 () Bool 

 (= |smt_conv::symex_dynamic::dynamic_7_array..pointer_object0| #b0000000000000000000000000000000000000000000000000000000000000011))

(define-fun $e4 () Bool 

 (= #b0000000000000000000000000000000000000000000000000000000000000000 |smt_conv::symex_dynamic::dynamic_8_array..pointer_object0|))

(define-fun $e5 () Bool 

 (= #b0000000000000000000000000000000000000000000000000000000000000001 |smt_conv::symex_dynamic::dynamic_8_array..pointer_object0|))

(define-fun $e6 () Bool 

 (= #b0000000000000000000000000000000000000000000000000000000000000010 |smt_conv::symex_dynamic::dynamic_8_array..pointer_object0|))

(assert 

 (= __ESBMC_ptr_obj_start_0 #b0000000000000000000000000000000000000000000000000000000000000000))

(assert 

 (= #b0000000000000000000000000000000000000000000000000000000000000000 __ESBMC_ptr_obj_end_0))

(assert 

 (= __ESBMC_ptr_obj_start_1 #b0000000000000000000000000000000000000000000000000000000000000001))

(assert 

 (= #b1111111111111111111111111111111111111111111111111111111111111111 __ESBMC_ptr_obj_end_1))

(assert 

 (= __ESBMC_ptr_obj_end_0 |smt_conv::__ESBMC_ptr_addr_range_0..end0|))

(assert 

 (= __ESBMC_ptr_obj_start_0 |smt_conv::__ESBMC_ptr_addr_range_0..start0|))

(assert 

 (= __ESBMC_ptr_obj_end_1 |smt_conv::__ESBMC_ptr_addr_range_1..end0|))

(assert 

 (= __ESBMC_ptr_obj_start_1 |smt_conv::__ESBMC_ptr_addr_range_1..start0|))

(assert 

 (= |smt_conv::smt_conv::collate_array_vals::3..end0| |smt_conv::smt_conv::collate_array_vals::4..end0|))

(assert 

 (= |smt_conv::smt_conv::collate_array_vals::3..start0| |smt_conv::smt_conv::collate_array_vals::4..start0|))

(assert 

 (= __ESBMC_ptr_obj_end_0 |smt_conv::smt_conv::collate_array_vals::7..end0|))

(assert 

 (= __ESBMC_ptr_obj_start_0 |smt_conv::smt_conv::collate_array_vals::7..start0|))

(assert 

 (= 

  (bvadd __ESBMC_ptr_obj_start_2 #b0000000000000000000000000000000000000000000000000000000000100000) __ESBMC_ptr_obj_end_2))

(assert 

 (bvult __ESBMC_ptr_obj_start_2 __ESBMC_ptr_obj_end_2))

(assert 

 (not 

  (and 

   (not 

    (bvult __ESBMC_ptr_obj_end_0 __ESBMC_ptr_obj_start_2)) 

   (not 

    (bvult __ESBMC_ptr_obj_end_2 __ESBMC_ptr_obj_start_0)))))

(assert 

 (= __ESBMC_ptr_obj_end_2 |smt_conv::__ESBMC_ptr_addr_range_2..end0|))

(assert 

 (= __ESBMC_ptr_obj_start_2 |smt_conv::__ESBMC_ptr_addr_range_2..start0|))

(assert 

 (= |smt_conv::smt_conv::collate_array_vals::9..end0| |smt_conv::smt_conv::collate_array_vals::10..end0|))

(assert 

 (= |smt_conv::smt_conv::collate_array_vals::9..start0| |smt_conv::smt_conv::collate_array_vals::10..start0|))

(assert 

 (= |smt_conv::smt_conv::collate_array_vals::10..end0| |smt_conv::smt_conv::collate_array_vals::11..end0|))

(assert 

 (= |smt_conv::smt_conv::collate_array_vals::10..start0| |smt_conv::smt_conv::collate_array_vals::11..start0|))

(assert 

 (= |smt_conv::smt_conv::collate_array_vals::7..end0| |smt_conv::smt_conv::collate_array_vals::15..end0|))

(assert 

 (= |smt_conv::smt_conv::collate_array_vals::7..start0| |smt_conv::smt_conv::collate_array_vals::15..start0|))

(assert 

 (= __ESBMC_ptr_obj_end_1 |smt_conv::smt_conv::collate_array_vals::16..end0|))

(assert 

 (= __ESBMC_ptr_obj_start_1 |smt_conv::smt_conv::collate_array_vals::16..start0|))

(assert (= 

 (bvnot 

  (select |__ESBMC_is_dynamic&0#1| #b0000000000000000000000000000000000000000000000000000000000000010)) #b1))

(assert 

 (= #b0000000000000000000000000000000000000000000000000000000000000000 |smt_conv::symex_dynamic::dynamic_7_array..pointer_offset0|))

(assert 

 (= #b0000000000000000000000000000000000000000000000000000000000000010 |smt_conv::symex_dynamic::dynamic_7_array..pointer_object0|))

(assert 

 (= |goto_symex::guard?0!0&0#1| 

  (bvnot 

   (ite $e1 #b1 #b0))))

(assert 

 (not 

  (and 

   (not 

    (and 

     (= |smt_conv::smt_conv::collate_array_vals::0..end0| |smt_conv::smt_conv::collate_array_vals::18..end0|) 

     (= |smt_conv::smt_conv::collate_array_vals::0..start0| |smt_conv::smt_conv::collate_array_vals::18..start0|))) $e1)))

(assert 

 (not 

  (and 

   (not 

    (and 

     (= |smt_conv::smt_conv::collate_array_vals::3..end0| |smt_conv::smt_conv::collate_array_vals::18..end0|) 

     (= |smt_conv::smt_conv::collate_array_vals::3..start0| |smt_conv::smt_conv::collate_array_vals::18..start0|))) $e2)))

(assert 

 (= |smt_conv::smt_conv::collate_array_vals::9..end0| |smt_conv::smt_conv::collate_array_vals::18..end0|))

(assert 

 (= |smt_conv::smt_conv::collate_array_vals::9..start0| |smt_conv::smt_conv::collate_array_vals::18..start0|))

(assert 

 (= 

  (ite $e1 __ESBMC_ptr_obj_end_0 |smt_conv::smt_conv::collate_array_vals::18..end0|) |smt_conv::smt_conv::collate_array_vals::19..end0|))

(assert 

 (= 

  (ite $e1 __ESBMC_ptr_obj_start_0 |smt_conv::smt_conv::collate_array_vals::18..start0|) |smt_conv::smt_conv::collate_array_vals::19..start0|))

(assert 

 (= 

  (ite $e2 __ESBMC_ptr_obj_end_1 |smt_conv::smt_conv::collate_array_vals::19..end0|) |smt_conv::smt_conv::collate_array_vals::20..end0|))

(assert 

 (= 

  (ite $e2 __ESBMC_ptr_obj_start_1 |smt_conv::smt_conv::collate_array_vals::19..start0|) |smt_conv::smt_conv::collate_array_vals::20..start0|))

(assert 

 (= __ESBMC_ptr_obj_end_2 |smt_conv::smt_conv::collate_array_vals::21..end0|))

(assert 

 (= __ESBMC_ptr_obj_start_2 |smt_conv::smt_conv::collate_array_vals::21..start0|))

(assert 

 (= |smt_conv::smt_conv::collate_array_vals::0..end0| |smt_conv::smt_conv::collate_array_vals::22..end0|))

(assert 

 (= |smt_conv::smt_conv::collate_array_vals::0..start0| |smt_conv::smt_conv::collate_array_vals::22..start0|))

(assert 

 (not 

  (and 

   (not 

    (and 

     (= |smt_conv::smt_conv::collate_array_vals::18..end0| |smt_conv::smt_conv::collate_array_vals::22..end0|) 

     (= |smt_conv::smt_conv::collate_array_vals::18..start0| |smt_conv::smt_conv::collate_array_vals::22..start0|))) $e1)))

(assert 

 (= __ESBMC_ptr_obj_end_0 |smt_conv::smt_conv::collate_array_vals::23..end0|))

(assert 

 (= __ESBMC_ptr_obj_start_0 |smt_conv::smt_conv::collate_array_vals::23..start0|))

(assert 

 (= |smt_conv::smt_conv::collate_array_vals::23..end0| |smt_conv::smt_conv::collate_array_vals::24..end0|))

(assert 

 (= |smt_conv::smt_conv::collate_array_vals::23..start0| |smt_conv::smt_conv::collate_array_vals::24..start0|))

(assert 

 (= |smt_conv::smt_conv::collate_array_vals::24..end0| |smt_conv::smt_conv::collate_array_vals::25..end0|))

(assert 

 (= |smt_conv::smt_conv::collate_array_vals::24..start0| |smt_conv::smt_conv::collate_array_vals::25..start0|))

(assert 

 (= |c:linux-4.2-rc1.tar.xz-43_2a-drivers--media--usb--gspca--gspca_topro.ko-entry_point.cil.out.i@131743@F@assume_abort_if_not@cond?1!0&0#1| 

  (ite 

   (= |smt_conv::smt_conv::collate_array_vals::21..start0| |smt_conv::smt_conv::collate_array_vals::25..start0|) #b00000000000000000000000000000000 #b00000000000000000000000000000001)))

(assert 

 (= |goto_symex::guard?0!0&0#2| 

  (ite 

   (= #b00000000000000000000000000000000 |c:linux-4.2-rc1.tar.xz-43_2a-drivers--media--usb--gspca--gspca_topro.ko-entry_point.cil.out.i@131743@F@assume_abort_if_not@cond?1!0&0#1|) #b1 #b0)))

(assert 

 (= 

  (bvadd __ESBMC_ptr_obj_start_3 #b0000000000000000000000000000000000000000000000000000000011010000) __ESBMC_ptr_obj_end_3))

(assert 

 (bvult __ESBMC_ptr_obj_start_3 __ESBMC_ptr_obj_end_3))

(assert 

 (not 

  (and 

   (not 

    (bvult __ESBMC_ptr_obj_end_0 __ESBMC_ptr_obj_start_3)) 

   (not 

    (bvult __ESBMC_ptr_obj_end_3 __ESBMC_ptr_obj_start_0)))))

(assert 

 (not 

  (and 

   (not 

    (bvult __ESBMC_ptr_obj_end_2 __ESBMC_ptr_obj_start_3)) 

   (not 

    (bvult __ESBMC_ptr_obj_end_3 __ESBMC_ptr_obj_start_2)))))

(assert 

 (= __ESBMC_ptr_obj_end_3 |smt_conv::__ESBMC_ptr_addr_range_3..end0|))

(assert 

 (= __ESBMC_ptr_obj_start_3 |smt_conv::__ESBMC_ptr_addr_range_3..start0|))

(assert 

 (not 

  (and 

   (not 

    (and 

     (= |smt_conv::smt_conv::collate_array_vals::18..end0| |smt_conv::smt_conv::collate_array_vals::26..end0|) 

     (= |smt_conv::smt_conv::collate_array_vals::18..start0| |smt_conv::smt_conv::collate_array_vals::26..start0|))) $e3)))

(assert 

 (= |smt_conv::smt_conv::collate_array_vals::26..end0| |smt_conv::smt_conv::collate_array_vals::27..end0|))

(assert 

 (= |smt_conv::smt_conv::collate_array_vals::26..start0| |smt_conv::smt_conv::collate_array_vals::27..start0|))

(assert 

 (= |smt_conv::smt_conv::collate_array_vals::27..end0| |smt_conv::smt_conv::collate_array_vals::28..end0|))

(assert 

 (= |smt_conv::smt_conv::collate_array_vals::27..start0| |smt_conv::smt_conv::collate_array_vals::28..start0|))

(assert 

 (= |smt_conv::smt_conv::collate_array_vals::28..end0| |smt_conv::smt_conv::collate_array_vals::29..end0|))

(assert 

 (= |smt_conv::smt_conv::collate_array_vals::28..start0| |smt_conv::smt_conv::collate_array_vals::29..start0|))

(assert 

 (= |smt_conv::smt_conv::collate_array_vals::15..end0| |smt_conv::smt_conv::collate_array_vals::36..end0|))

(assert 

 (= |smt_conv::smt_conv::collate_array_vals::15..start0| |smt_conv::smt_conv::collate_array_vals::36..start0|))

(assert 

 (= |smt_conv::smt_conv::collate_array_vals::16..end0| |smt_conv::smt_conv::collate_array_vals::37..end0|))

(assert 

 (= |smt_conv::smt_conv::collate_array_vals::16..start0| |smt_conv::smt_conv::collate_array_vals::37..start0|))

(assert 

 (= __ESBMC_ptr_obj_end_2 |smt_conv::smt_conv::collate_array_vals::38..end0|))

(assert 

 (= __ESBMC_ptr_obj_start_2 |smt_conv::smt_conv::collate_array_vals::38..start0|))

(assert 

 (= 

  (ite $e3 __ESBMC_ptr_obj_end_3 |smt_conv::smt_conv::collate_array_vals::21..end0|) |smt_conv::smt_conv::collate_array_vals::39..end0|))

(assert 

 (= 

  (ite $e3 __ESBMC_ptr_obj_start_3 |smt_conv::smt_conv::collate_array_vals::21..start0|) |smt_conv::smt_conv::collate_array_vals::39..start0|))

(assert 

 (= |smt_conv::smt_conv::collate_array_vals::25..end0| |smt_conv::smt_conv::collate_array_vals::40..end0|))

(assert 

 (= |smt_conv::smt_conv::collate_array_vals::25..start0| |smt_conv::smt_conv::collate_array_vals::40..start0|))

(assert (= 

 (bvnot 

  (select |__ESBMC_is_dynamic&0#1| #b0000000000000000000000000000000000000000000000000000000000000011)) #b1))

(assert 

 (= #b0000000000000000000000000000000000000000000000000000000000000000 |smt_conv::symex_dynamic::dynamic_8_array..pointer_offset0|))

(assert 

 (= #b0000000000000000000000000000000000000000000000000000000000000011 |smt_conv::symex_dynamic::dynamic_8_array..pointer_object0|))

(assert 

 (= |goto_symex::guard?0!0&0#3| 

  (bvnot 

   (ite $e4 #b1 #b0))))

(assert 

 (not 

  (and 

   (not 

    (and 

     (= |smt_conv::smt_conv::collate_array_vals::0..end0| |smt_conv::smt_conv::collate_array_vals::42..end0|) 

     (= |smt_conv::smt_conv::collate_array_vals::0..start0| |smt_conv::smt_conv::collate_array_vals::42..start0|))) $e4)))

(assert 

 (not 

  (and 

   (not 

    (and 

     (= |smt_conv::smt_conv::collate_array_vals::3..end0| |smt_conv::smt_conv::collate_array_vals::42..end0|) 

     (= |smt_conv::smt_conv::collate_array_vals::3..start0| |smt_conv::smt_conv::collate_array_vals::42..start0|))) $e5)))

(assert 

 (not 

  (and 

   (not 

    (and 

     (= |smt_conv::smt_conv::collate_array_vals::9..end0| |smt_conv::smt_conv::collate_array_vals::42..end0|) 

     (= |smt_conv::smt_conv::collate_array_vals::9..start0| |smt_conv::smt_conv::collate_array_vals::42..start0|))) $e6)))

(assert 

 (not 

  (and 

   (not 

    (and 

     (= |smt_conv::smt_conv::collate_array_vals::18..end0| |smt_conv::smt_conv::collate_array_vals::42..end0|) 

     (= |smt_conv::smt_conv::collate_array_vals::18..start0| |smt_conv::smt_conv::collate_array_vals::42..start0|))) 

   (= |smt_conv::symex_dynamic::dynamic_7_array..pointer_object0| |smt_conv::symex_dynamic::dynamic_8_array..pointer_object0|))))

(assert 

 (not 

  (and 

   (not 

    (and 

     (= |smt_conv::smt_conv::collate_array_vals::22..end0| |smt_conv::smt_conv::collate_array_vals::42..end0|) 

     (= |smt_conv::smt_conv::collate_array_vals::22..start0| |smt_conv::smt_conv::collate_array_vals::42..start0|))) $e4)))

(assert 

 (= |smt_conv::smt_conv::collate_array_vals::26..end0| |smt_conv::smt_conv::collate_array_vals::42..end0|))

(assert 

 (= |smt_conv::smt_conv::collate_array_vals::26..start0| |smt_conv::smt_conv::collate_array_vals::42..start0|))

(assert 

 (= 

  (ite $e4 __ESBMC_ptr_obj_end_0 |smt_conv::smt_conv::collate_array_vals::42..end0|) |smt_conv::smt_conv::collate_array_vals::43..end0|))

(assert 

 (= 

  (ite $e4 __ESBMC_ptr_obj_start_0 |smt_conv::smt_conv::collate_array_vals::42..start0|) |smt_conv::smt_conv::collate_array_vals::43..start0|))

(assert 

 (= 

  (ite $e5 __ESBMC_ptr_obj_end_1 |smt_conv::smt_conv::collate_array_vals::43..end0|) |smt_conv::smt_conv::collate_array_vals::44..end0|))

(assert 

 (= 

  (ite $e5 __ESBMC_ptr_obj_start_1 |smt_conv::smt_conv::collate_array_vals::43..start0|) |smt_conv::smt_conv::collate_array_vals::44..start0|))

(assert 

 (= 

  (ite $e6 __ESBMC_ptr_obj_end_2 |smt_conv::smt_conv::collate_array_vals::44..end0|) |smt_conv::smt_conv::collate_array_vals::45..end0|))

(assert 

 (= 

  (ite $e6 __ESBMC_ptr_obj_start_2 |smt_conv::smt_conv::collate_array_vals::44..start0|) |smt_conv::smt_conv::collate_array_vals::45..start0|))

(assert 

 (= __ESBMC_ptr_obj_end_3 |smt_conv::smt_conv::collate_array_vals::46..end0|))

(assert 

 (= __ESBMC_ptr_obj_start_3 |smt_conv::smt_conv::collate_array_vals::46..start0|))

(assert 

 (= |c:linux-4.2-rc1.tar.xz-43_2a-drivers--media--usb--gspca--gspca_topro.ko-entry_point.cil.out.i@131743@F@assume_abort_if_not@cond?2!0&0#1| 

  (ite 

   (= |smt_conv::smt_conv::collate_array_vals::25..start0| |smt_conv::smt_conv::collate_array_vals::46..start0|) #b00000000000000000000000000000000 #b00000000000000000000000000000001)))

(assert 

 (= |goto_symex::guard?0!0&0#4| 

  (ite 

   (= #b00000000000000000000000000000000 |c:linux-4.2-rc1.tar.xz-43_2a-drivers--media--usb--gspca--gspca_topro.ko-entry_point.cil.out.i@131743@F@assume_abort_if_not@cond?2!0&0#1|) #b1 #b0)))

(assert (= 

 (bvnot 

  (bvand 

   (bvnot 

    (bvand |execution_statet::guard_exec?0!0| 

     (bvand 

      (bvnot |goto_symex::guard?0!0&0#2|) 

      (bvnot |goto_symex::guard?0!0&0#4|)))) 

   (bvand 

    (bvnot 

     (bvand |goto_symex::guard?0!0&0#1| |execution_statet::guard_exec?0!0|)) 

    (bvnot 

     (bvand 

      (bvnot |goto_symex::guard?0!0&0#2|) 

      (bvand |execution_statet::guard_exec?0!0| |goto_symex::guard?0!0&0#3|)))))) #b1))

(check-sat)

(exit)
